(set-logic NRA)
(declare-fun a () Real)
(declare-fun b () Real)
(assert (exists ((x Real)) (exists ((y Real)) (and (=  (+ (* a (- 1)) (* x (+ (- 2) (* x 3)))) 0) (= (* (- 1) (+ (+ (+ 2 (* a (- 1))) (* x (+ a (* x (+ 1 (* x (- 1))))))) (* b 2))) 0) (=  (+ (* a (- 1)) (* y (+ (- 2) (* y 3)))) 0) (= (* (+ (+ 2 (* a (- 1))) (* y (+ (- 2) y))) (+ 1 y)) 0) (<= (* (- 1) (+ (- 1) (* a 4))) 0) (<=  (+ (- 7) (* a 4)) 0) (<= (* (- 1) (+ 3 (* b 4))) 0) (<=  (+ (- 3) (* b 4)) 0) (<= (* (- 1) (+ 1 x)) 0) (<=  x 0) (<= (* (- 1) y) 0) (<=  (+ (- 1) y) 0)))))
(apply qe)
